p cnf 324 1
324 0
w 1 0.380928
w 2 1 0.293718
w 2 -1 0.242726
w 3 2 0
w 3 -2 1
w 4 3 1
w 4 -3 0
w 5 4 0
w 5 -4 1
w 6 5 0.72077
w 6 -5 0.575873
w 7 6 0
w 7 -6 1
w 8 7 0.383663
w 8 -7 0.798015
w 9 8 0
w 9 -8 1
w 10 9 0.736298
w 10 -9 0.431647
w 11 10 0.168203
w 11 -10 0.801984
w 12 11 0.896352
w 12 -11 0.162304
w 13 12 0.676336
w 13 -12 0.543232
w 14 13 1
w 14 -13 0
w 15 14 0.651825
w 15 -14 0.485202
w 16 15 0
w 16 -15 1
w 17 16 0.0124039
w 17 -16 0.517731
w 18 17 0.588277
w 18 -17 0.573294
w 19 1 0.190461
w 19 -1 0.956957
w 20 19 2 1
w 20 19 -2 1
w 20 -19 2 1
w 20 -19 -2 0
w 21 20 3 0
w 21 20 -3 1
w 21 -20 3 0
w 21 -20 -3 0
w 22 21 4 0
w 22 21 -4 1
w 22 -21 4 0
w 22 -21 -4 1
w 23 22 5 0.559401
w 23 22 -5 0.27095
w 23 -22 5 0.302674
w 23 -22 -5 0.755208
w 24 23 6 1
w 24 23 -6 1
w 24 -23 6 0
w 24 -23 -6 1
w 25 24 7 1
w 25 24 -7 1
w 25 -24 7 1
w 25 -24 -7 0
w 26 25 8 0.916578
w 26 25 -8 0.113086
w 26 -25 8 0.756663
w 26 -25 -8 0.0231041
w 27 26 9 0
w 27 26 -9 0
w 27 -26 9 1
w 27 -26 -9 0
w 28 27 10 0.0152021
w 28 27 -10 0.316331
w 28 -27 10 0.450572
w 28 -27 -10 0.634326
w 29 28 11 0
w 29 28 -11 1
w 29 -28 11 1
w 29 -28 -11 1
w 30 29 12 0
w 30 29 -12 0
w 30 -29 12 0
w 30 -29 -12 1
w 31 30 13 0.206515
w 31 30 -13 0.564948
w 31 -30 13 0.435033
w 31 -30 -13 0.485324
w 32 31 14 0
w 32 31 -14 1
w 32 -31 14 1
w 32 -31 -14 0
w 33 32 15 0.398279
w 33 32 -15 0.672548
w 33 -32 15 0.424336
w 33 -32 -15 0.170346
w 34 33 16 0
w 34 33 -16 1
w 34 -33 16 0
w 34 -33 -16 1
w 35 34 17 0.591594
w 35 34 -17 0.56201
w 35 -34 17 0.72515
w 35 -34 -17 0.0280709
w 36 35 18 0
w 36 35 -18 1
w 36 -35 18 1
w 36 -35 -18 0
w 37 19 0.748669
w 37 -19 0.952431
w 38 37 20 0
w 38 37 -20 1
w 38 -37 20 1
w 38 -37 -20 0
w 39 38 21 1
w 39 38 -21 0
w 39 -38 21 1
w 39 -38 -21 1
w 40 39 22 0.43792
w 40 39 -22 0.271114
w 40 -39 22 0.724037
w 40 -39 -22 0.539384
w 41 40 23 0
w 41 40 -23 1
w 41 -40 23 1
w 41 -40 -23 0
w 42 41 24 0.00168806
w 42 41 -24 0.801495
w 42 -41 24 0.980624
w 42 -41 -24 0.862942
w 43 42 25 0
w 43 42 -25 1
w 43 -42 25 1
w 43 -42 -25 0
w 44 43 26 0.721341
w 44 43 -26 0.772981
w 44 -43 26 0.999044
w 44 -43 -26 0.414535
w 45 44 27 1
w 45 44 -27 0
w 45 -44 27 1
w 45 -44 -27 1
w 46 45 28 0
w 46 45 -28 1
w 46 -45 28 0
w 46 -45 -28 1
w 47 46 29 1
w 47 46 -29 1
w 47 -46 29 1
w 47 -46 -29 0
w 48 47 30 0
w 48 47 -30 1
w 48 -47 30 0
w 48 -47 -30 0
w 49 48 31 1
w 49 48 -31 0
w 49 -48 31 1
w 49 -48 -31 0
w 50 49 32 1
w 50 49 -32 0
w 50 -49 32 1
w 50 -49 -32 0
w 51 50 33 0
w 51 50 -33 1
w 51 -50 33 1
w 51 -50 -33 1
w 52 51 34 0
w 52 51 -34 1
w 52 -51 34 0
w 52 -51 -34 0
w 53 52 35 0.85274
w 53 52 -35 0.872798
w 53 -52 35 0.513659
w 53 -52 -35 0.970258
w 54 53 36 1
w 54 53 -36 0
w 54 -53 36 0
w 54 -53 -36 0
w 55 37 0
w 55 -37 1
w 56 55 38 0.0849661
w 56 55 -38 0.101032
w 56 -55 38 0.93001
w 56 -55 -38 0.266429
w 57 56 39 1
w 57 56 -39 1
w 57 -56 39 1
w 57 -56 -39 0
w 58 57 40 0
w 58 57 -40 1
w 58 -57 40 0
w 58 -57 -40 1
w 59 58 41 1
w 59 58 -41 1
w 59 -58 41 0
w 59 -58 -41 0
w 60 59 42 0.181365
w 60 59 -42 0.567182
w 60 -59 42 0.894553
w 60 -59 -42 0.27627
w 61 60 43 0.635761
w 61 60 -43 0.594969
w 61 -60 43 0.836562
w 61 -60 -43 0.128543
w 62 61 44 0
w 62 61 -44 1
w 62 -61 44 0
w 62 -61 -44 0
w 63 62 45 1
w 63 62 -45 1
w 63 -62 45 1
w 63 -62 -45 0
w 64 63 46 0
w 64 63 -46 0
w 64 -63 46 1
w 64 -63 -46 0
w 65 64 47 1
w 65 64 -47 0
w 65 -64 47 0
w 65 -64 -47 1
w 66 65 48 1
w 66 65 -48 0
w 66 -65 48 0
w 66 -65 -48 0
w 67 66 49 1
w 67 66 -49 0
w 67 -66 49 1
w 67 -66 -49 1
w 68 67 50 0.75635
w 68 67 -50 0.212965
w 68 -67 50 0.0913094
w 68 -67 -50 0.857787
w 69 68 51 0.571248
w 69 68 -51 0.317141
w 69 -68 51 0.289851
w 69 -68 -51 0.27206
w 70 69 52 1
w 70 69 -52 0
w 70 -69 52 0
w 70 -69 -52 0
w 71 70 53 0.591611
w 71 70 -53 0.768477
w 71 -70 53 0.00130127
w 71 -70 -53 0.886259
w 72 71 54 1
w 72 71 -54 0
w 72 -71 54 1
w 72 -71 -54 1
w 73 55 0
w 73 -55 1
w 74 73 56 0
w 74 73 -56 1
w 74 -73 56 1
w 74 -73 -56 1
w 75 74 57 1
w 75 74 -57 1
w 75 -74 57 1
w 75 -74 -57 0
w 76 75 58 0.204716
w 76 75 -58 0.903194
w 76 -75 58 0.780371
w 76 -75 -58 0.595055
w 77 76 59 0
w 77 76 -59 0
w 77 -76 59 1
w 77 -76 -59 1
w 78 77 60 0.405646
w 78 77 -60 0.843732
w 78 -77 60 0.441445
w 78 -77 -60 0.877462
w 79 78 61 0
w 79 78 -61 0
w 79 -78 61 1
w 79 -78 -61 0
w 80 79 62 0.733297
w 80 79 -62 0.0249153
w 80 -79 62 0.26416
w 80 -79 -62 0.579051
w 81 80 63 1
w 81 80 -63 0
w 81 -80 63 0
w 81 -80 -63 0
w 82 81 64 1
w 82 81 -64 1
w 82 -81 64 0
w 82 -81 -64 1
w 83 82 65 0.0416499
w 83 82 -65 0.705624
w 83 -82 65 0.352756
w 83 -82 -65 0.884081
w 84 83 66 1
w 84 83 -66 0
w 84 -83 66 1
w 84 -83 -66 0
w 85 84 67 0
w 85 84 -67 1
w 85 -84 67 0
w 85 -84 -67 0
w 86 85 68 0.747541
w 86 85 -68 0.646239
w 86 -85 68 0.853213
w 86 -85 -68 0.326592
w 87 86 69 0.788798
w 87 86 -69 0.842706
w 87 -86 69 0.643219
w 87 -86 -69 0.337726
w 88 87 70 0.790213
w 88 87 -70 0.78985
w 88 -87 70 0.671927
w 88 -87 -70 0.532262
w 89 88 71 0.713577
w 89 88 -71 0.237885
w 89 -88 71 0.858192
w 89 -88 -71 0.597658
w 90 89 72 1
w 90 89 -72 1
w 90 -89 72 1
w 90 -89 -72 0
w 91 73 1
w 91 -73 0
w 92 91 74 1
w 92 91 -74 0
w 92 -91 74 1
w 92 -91 -74 1
w 93 92 75 0
w 93 92 -75 1
w 93 -92 75 1
w 93 -92 -75 0
w 94 93 76 1
w 94 93 -76 1
w 94 -93 76 0
w 94 -93 -76 1
w 95 94 77 0.489559
w 95 94 -77 0.919992
w 95 -94 77 0.0565009
w 95 -94 -77 0.994996
w 96 95 78 0.294386
w 96 95 -78 0.853188
w 96 -95 78 0.231227
w 96 -95 -78 0.793081
w 97 96 79 1
w 97 96 -79 1
w 97 -96 79 1
w 97 -96 -79 0
w 98 97 80 0
w 98 97 -80 0
w 98 -97 80 0
w 98 -97 -80 1
w 99 98 81 0.119609
w 99 98 -81 0.978035
w 99 -98 81 0.328344
w 99 -98 -81 0.657835
w 100 99 82 0
w 100 99 -82 1
w 100 -99 82 1
w 100 -99 -82 0
w 101 100 83 0
w 101 100 -83 1
w 101 -100 83 0
w 101 -100 -83 0
w 102 101 84 0.840393
w 102 101 -84 0.677995
w 102 -101 84 0.727781
w 102 -101 -84 0.0716205
w 103 102 85 1
w 103 102 -85 0
w 103 -102 85 0
w 103 -102 -85 0
w 104 103 86 0.908986
w 104 103 -86 0.764345
w 104 -103 86 0.567769
w 104 -103 -86 0.81696
w 105 104 87 1
w 105 104 -87 1
w 105 -104 87 0
w 105 -104 -87 1
w 106 105 88 0.399392
w 106 105 -88 0.341598
w 106 -105 88 0.633172
w 106 -105 -88 0.202261
w 107 106 89 0.920005
w 107 106 -89 0.52937
w 107 -106 89 0.611232
w 107 -106 -89 0.12683
w 108 107 90 0.485825
w 108 107 -90 0.967223
w 108 -107 90 0.590974
w 108 -107 -90 0.213606
w 109 91 1
w 109 -91 0
w 110 109 92 1
w 110 109 -92 0
w 110 -109 92 0
w 110 -109 -92 1
w 111 110 93 1
w 111 110 -93 0
w 111 -110 93 0
w 111 -110 -93 1
w 112 111 94 0
w 112 111 -94 1
w 112 -111 94 1
w 112 -111 -94 1
w 113 112 95 1
w 113 112 -95 1
w 113 -112 95 0
w 113 -112 -95 1
w 114 113 96 0
w 114 113 -96 1
w 114 -113 96 0
w 114 -113 -96 0
w 115 114 97 0.431306
w 115 114 -97 0.413358
w 115 -114 97 0.125608
w 115 -114 -97 0.47015
w 116 115 98 0
w 116 115 -98 0
w 116 -115 98 1
w 116 -115 -98 0
w 117 116 99 0
w 117 116 -99 1
w 117 -116 99 0
w 117 -116 -99 1
w 118 117 100 1
w 118 117 -100 1
w 118 -117 100 1
w 118 -117 -100 0
w 119 118 101 0.367053
w 119 118 -101 0.0200405
w 119 -118 101 0.082808
w 119 -118 -101 0.747088
w 120 119 102 0.420062
w 120 119 -102 0.656493
w 120 -119 102 0.261164
w 120 -119 -102 0.884145
w 121 120 103 1
w 121 120 -103 1
w 121 -120 103 0
w 121 -120 -103 1
w 122 121 104 1
w 122 121 -104 1
w 122 -121 104 0
w 122 -121 -104 0
w 123 122 105 0
w 123 122 -105 1
w 123 -122 105 1
w 123 -122 -105 1
w 124 123 106 0
w 124 123 -106 0
w 124 -123 106 1
w 124 -123 -106 1
w 125 124 107 0
w 125 124 -107 0
w 125 -124 107 1
w 125 -124 -107 1
w 126 125 108 0
w 126 125 -108 1
w 126 -125 108 0
w 126 -125 -108 0
w 127 109 0.75024
w 127 -109 0.40829
w 128 127 110 0
w 128 127 -110 0
w 128 -127 110 0
w 128 -127 -110 1
w 129 128 111 0
w 129 128 -111 0
w 129 -128 111 1
w 129 -128 -111 0
w 130 129 112 0
w 130 129 -112 0
w 130 -129 112 1
w 130 -129 -112 1
w 131 130 113 0.139128
w 131 130 -113 0.885781
w 131 -130 113 0.267043
w 131 -130 -113 0.655462
w 132 131 114 0
w 132 131 -114 0
w 132 -131 114 1
w 132 -131 -114 0
w 133 132 115 0.00179675
w 133 132 -115 0.200961
w 133 -132 115 0.404915
w 133 -132 -115 0.752036
w 134 133 116 0.489339
w 134 133 -116 0.287877
w 134 -133 116 0.385185
w 134 -133 -116 0.409314
w 135 134 117 0.531328
w 135 134 -117 0.0325888
w 135 -134 117 0.465355
w 135 -134 -117 0.48639
w 136 135 118 1
w 136 135 -118 0
w 136 -135 118 0
w 136 -135 -118 0
w 137 136 119 0.322582
w 137 136 -119 0.33059
w 137 -136 119 0.665971
w 137 -136 -119 0.589625
w 138 137 120 0.682335
w 138 137 -120 0.237353
w 138 -137 120 0.992833
w 138 -137 -120 0.249343
w 139 138 121 0.612099
w 139 138 -121 0.251139
w 139 -138 121 0.123219
w 139 -138 -121 0.017014
w 140 139 122 1
w 140 139 -122 0
w 140 -139 122 0
w 140 -139 -122 1
w 141 140 123 0.0376827
w 141 140 -123 0.648983
w 141 -140 123 0.948256
w 141 -140 -123 0.503038
w 142 141 124 1
w 142 141 -124 1
w 142 -141 124 1
w 142 -141 -124 0
w 143 142 125 0.282201
w 143 142 -125 0.573717
w 143 -142 125 0.523715
w 143 -142 -125 0.871826
w 144 143 126 0.20605
w 144 143 -126 0.109179
w 144 -143 126 0.552602
w 144 -143 -126 0.455393
w 145 127 0
w 145 -127 1
w 146 145 128 0.154656
w 146 145 -128 0.181715
w 146 -145 128 0.709708
w 146 -145 -128 0.887126
w 147 146 129 0.000760674
w 147 146 -129 0.00478065
w 147 -146 129 0.603735
w 147 -146 -129 0.0384433
w 148 147 130 0.551991
w 148 147 -130 0.541481
w 148 -147 130 0.789137
w 148 -147 -130 0.822476
w 149 148 131 0.866692
w 149 148 -131 0.782096
w 149 -148 131 0.836273
w 149 -148 -131 0.724437
w 150 149 132 0
w 150 149 -132 1
w 150 -149 132 0
w 150 -149 -132 1
w 151 150 133 1
w 151 150 -133 0
w 151 -150 133 1
w 151 -150 -133 1
w 152 151 134 0.616127
w 152 151 -134 0.231397
w 152 -151 134 0.868776
w 152 -151 -134 0.325835
w 153 152 135 0
w 153 152 -135 1
w 153 -152 135 1
w 153 -152 -135 0
w 154 153 136 1
w 154 153 -136 0
w 154 -153 136 0
w 154 -153 -136 1
w 155 154 137 0.499667
w 155 154 -137 0.432896
w 155 -154 137 0.317141
w 155 -154 -137 0.33594
w 156 155 138 1
w 156 155 -138 1
w 156 -155 138 0
w 156 -155 -138 1
w 157 156 139 0.362866
w 157 156 -139 0.23805
w 157 -156 139 0.769281
w 157 -156 -139 0.439606
w 158 157 140 0.385409
w 158 157 -140 0.671003
w 158 -157 140 0.793888
w 158 -157 -140 0.711244
w 159 158 141 0.350731
w 159 158 -141 0.0378396
w 159 -158 141 0.91283
w 159 -158 -141 0.51131
w 160 159 142 0
w 160 159 -142 0
w 160 -159 142 0
w 160 -159 -142 1
w 161 160 143 0.809066
w 161 160 -143 0.688996
w 161 -160 143 0.0760653
w 161 -160 -143 0.145006
w 162 161 144 0.457504
w 162 161 -144 0.890936
w 162 -161 144 0.251813
w 162 -161 -144 0.775067
w 163 145 0.111499
w 163 -145 0.137933
w 164 163 146 0.880781
w 164 163 -146 0.577539
w 164 -163 146 0.769788
w 164 -163 -146 0.266189
w 165 164 147 1
w 165 164 -147 1
w 165 -164 147 0
w 165 -164 -147 0
w 166 165 148 0
w 166 165 -148 0
w 166 -165 148 1
w 166 -165 -148 0
w 167 166 149 0.896896
w 167 166 -149 0.408519
w 167 -166 149 0.536617
w 167 -166 -149 0.585893
w 168 167 150 1
w 168 167 -150 0
w 168 -167 150 1
w 168 -167 -150 1
w 169 168 151 0.717155
w 169 168 -151 0.179185
w 169 -168 151 0.795533
w 169 -168 -151 0.855088
w 170 169 152 0
w 170 169 -152 0
w 170 -169 152 1
w 170 -169 -152 1
w 171 170 153 0.357324
w 171 170 -153 0.919936
w 171 -170 153 0.719238
w 171 -170 -153 0.271731
w 172 171 154 0.670136
w 172 171 -154 0.697448
w 172 -171 154 0.353359
w 172 -171 -154 0.310932
w 173 172 155 0
w 173 172 -155 1
w 173 -172 155 1
w 173 -172 -155 0
w 174 173 156 0.240147
w 174 173 -156 0.299149
w 174 -173 156 0.225941
w 174 -173 -156 0.182235
w 175 174 157 0.909975
w 175 174 -157 0.899391
w 175 -174 157 0.0508928
w 175 -174 -157 0.705508
w 176 175 158 0.0747537
w 176 175 -158 0.381822
w 176 -175 158 0.187105
w 176 -175 -158 0.868402
w 177 176 159 0
w 177 176 -159 0
w 177 -176 159 1
w 177 -176 -159 1
w 178 177 160 1
w 178 177 -160 0
w 178 -177 160 0
w 178 -177 -160 1
w 179 178 161 0.541948
w 179 178 -161 0.613738
w 179 -178 161 0.776407
w 179 -178 -161 0.297511
w 180 179 162 1
w 180 179 -162 0
w 180 -179 162 1
w 180 -179 -162 1
w 181 163 0.402121
w 181 -163 0.706044
w 182 181 164 0.453014
w 182 181 -164 0.411552
w 182 -181 164 0.373761
w 182 -181 -164 0.527767
w 183 182 165 0.560867
w 183 182 -165 0.39617
w 183 -182 165 0.117699
w 183 -182 -165 0.429141
w 184 183 166 0.36196
w 184 183 -166 0.0166529
w 184 -183 166 0.119355
w 184 -183 -166 0.541428
w 185 184 167 1
w 185 184 -167 0
w 185 -184 167 0
w 185 -184 -167 1
w 186 185 168 0.619288
w 186 185 -168 0.153719
w 186 -185 168 0.919257
w 186 -185 -168 0.189415
w 187 186 169 0.44967
w 187 186 -169 0.985484
w 187 -186 169 0.411269
w 187 -186 -169 0.851791
w 188 187 170 0.0305522
w 188 187 -170 0.304805
w 188 -187 170 0.10308
w 188 -187 -170 0.404314
w 189 188 171 0.896455
w 189 188 -171 0.96518
w 189 -188 171 0.228742
w 189 -188 -171 0.014154
w 190 189 172 0
w 190 189 -172 0
w 190 -189 172 0
w 190 -189 -172 1
w 191 190 173 0.685275
w 191 190 -173 0.284254
w 191 -190 173 0.991797
w 191 -190 -173 0.528155
w 192 191 174 0
w 192 191 -174 1
w 192 -191 174 1
w 192 -191 -174 0
w 193 192 175 1
w 193 192 -175 0
w 193 -192 175 0
w 193 -192 -175 1
w 194 193 176 0.0138703
w 194 193 -176 0.42738
w 194 -193 176 0.205314
w 194 -193 -176 0.116951
w 195 194 177 0.0378858
w 195 194 -177 0.0134055
w 195 -194 177 0.796874
w 195 -194 -177 0.266628
w 196 195 178 0
w 196 195 -178 1
w 196 -195 178 1
w 196 -195 -178 0
w 197 196 179 0
w 197 196 -179 1
w 197 -196 179 0
w 197 -196 -179 1
w 198 197 180 0.511977
w 198 197 -180 0.992803
w 198 -197 180 0.963042
w 198 -197 -180 0.806159
w 199 181 0.299901
w 199 -181 0.791718
w 200 199 182 0.622243
w 200 199 -182 0.188546
w 200 -199 182 0.541078
w 200 -199 -182 0.636113
w 201 200 183 0.746391
w 201 200 -183 0.753064
w 201 -200 183 0.447619
w 201 -200 -183 0.784277
w 202 201 184 0.244493
w 202 201 -184 0.050905
w 202 -201 184 0.794029
w 202 -201 -184 0.435689
w 203 202 185 0
w 203 202 -185 0
w 203 -202 185 0
w 203 -202 -185 1
w 204 203 186 0.83193
w 204 203 -186 0.140901
w 204 -203 186 0.138923
w 204 -203 -186 0.824733
w 205 204 187 0
w 205 204 -187 1
w 205 -204 187 0
w 205 -204 -187 1
w 206 205 188 0
w 206 205 -188 1
w 206 -205 188 0
w 206 -205 -188 0
w 207 206 189 0.344621
w 207 206 -189 0.415265
w 207 -206 189 0.988891
w 207 -206 -189 0.128899
w 208 207 190 1
w 208 207 -190 0
w 208 -207 190 0
w 208 -207 -190 1
w 209 208 191 0
w 209 208 -191 1
w 209 -208 191 0
w 209 -208 -191 1
w 210 209 192 1
w 210 209 -192 1
w 210 -209 192 0
w 210 -209 -192 1
w 211 210 193 1
w 211 210 -193 0
w 211 -210 193 0
w 211 -210 -193 0
w 212 211 194 0.707008
w 212 211 -194 0.976506
w 212 -211 194 0.421011
w 212 -211 -194 0.369209
w 213 212 195 0.765632
w 213 212 -195 0.784473
w 213 -212 195 0.506669
w 213 -212 -195 0.894531
w 214 213 196 0.740053
w 214 213 -196 0.0743344
w 214 -213 196 0.94197
w 214 -213 -196 0.409126
w 215 214 197 1
w 215 214 -197 1
w 215 -214 197 1
w 215 -214 -197 0
w 216 215 198 0
w 216 215 -198 1
w 216 -215 198 1
w 216 -215 -198 1
w 217 199 0.598499
w 217 -199 0.939709
w 218 217 200 1
w 218 217 -200 1
w 218 -217 200 1
w 218 -217 -200 0
w 219 218 201 0.690595
w 219 218 -201 0.355637
w 219 -218 201 0.485153
w 219 -218 -201 0.456228
w 220 219 202 1
w 220 219 -202 1
w 220 -219 202 0
w 220 -219 -202 0
w 221 220 203 1
w 221 220 -203 1
w 221 -220 203 0
w 221 -220 -203 0
w 222 221 204 1
w 222 221 -204 1
w 222 -221 204 0
w 222 -221 -204 1
w 223 222 205 1
w 223 222 -205 0
w 223 -222 205 0
w 223 -222 -205 0
w 224 223 206 0.431653
w 224 223 -206 0.60469
w 224 -223 206 0.685118
w 224 -223 -206 0.701237
w 225 224 207 0.652493
w 225 224 -207 0.391833
w 225 -224 207 0.946756
w 225 -224 -207 0.137645
w 226 225 208 0.0868663
w 226 225 -208 0.129467
w 226 -225 208 0.198819
w 226 -225 -208 0.193184
w 227 226 209 0.623912
w 227 226 -209 0.241473
w 227 -226 209 0.00234284
w 227 -226 -209 0.471314
w 228 227 210 1
w 228 227 -210 0
w 228 -227 210 0
w 228 -227 -210 0
w 229 228 211 0
w 229 228 -211 1
w 229 -228 211 1
w 229 -228 -211 1
w 230 229 212 0.922414
w 230 229 -212 0.0969157
w 230 -229 212 0.321477
w 230 -229 -212 0.607532
w 231 230 213 0.912595
w 231 230 -213 0.260024
w 231 -230 213 0.189986
w 231 -230 -213 0.859351
w 232 231 214 1
w 232 231 -214 0
w 232 -231 214 0
w 232 -231 -214 1
w 233 232 215 0
w 233 232 -215 0
w 233 -232 215 0
w 233 -232 -215 1
w 234 233 216 1
w 234 233 -216 0
w 234 -233 216 1
w 234 -233 -216 1
w 235 217 0
w 235 -217 1
w 236 235 218 0.706489
w 236 235 -218 0.378316
w 236 -235 218 0.508488
w 236 -235 -218 0.423276
w 237 236 219 0
w 237 236 -219 0
w 237 -236 219 0
w 237 -236 -219 1
w 238 237 220 0.168286
w 238 237 -220 0.593543
w 238 -237 220 0.516699
w 238 -237 -220 0.565956
w 239 238 221 0.462917
w 239 238 -221 0.0930927
w 239 -238 221 0.868453
w 239 -238 -221 0.602318
w 240 239 222 1
w 240 239 -222 0
w 240 -239 222 0
w 240 -239 -222 0
w 241 240 223 0.522615
w 241 240 -223 0.737846
w 241 -240 223 0.932076
w 241 -240 -223 0.837585
w 242 241 224 0.775302
w 242 241 -224 0.544074
w 242 -241 224 0.266313
w 242 -241 -224 0.28379
w 243 242 225 0.567043
w 243 242 -225 0.889194
w 243 -242 225 0.712103
w 243 -242 -225 0.475305
w 244 243 226 1
w 244 243 -226 0
w 244 -243 226 0
w 244 -243 -226 1
w 245 244 227 0
w 245 244 -227 0
w 245 -244 227 0
w 245 -244 -227 1
w 246 245 228 0.784211
w 246 245 -228 0.115565
w 246 -245 228 0.934579
w 246 -245 -228 0.656603
w 247 246 229 1
w 247 246 -229 1
w 247 -246 229 0
w 247 -246 -229 1
w 248 247 230 0.411221
w 248 247 -230 0.560877
w 248 -247 230 0.0690413
w 248 -247 -230 0.695011
w 249 248 231 0.636084
w 249 248 -231 0.584205
w 249 -248 231 0.24033
w 249 -248 -231 0.111389
w 250 249 232 0.609781
w 250 249 -232 0.75498
w 250 -249 232 0.763248
w 250 -249 -232 0.495932
w 251 250 233 0.28113
w 251 250 -233 0.845
w 251 -250 233 0.267167
w 251 -250 -233 0.667465
w 252 251 234 0.0513774
w 252 251 -234 0.783029
w 252 -251 234 0.730966
w 252 -251 -234 0.707981
w 253 235 0.434809
w 253 -235 0.887198
w 254 253 236 0.0707293
w 254 253 -236 0.904001
w 254 -253 236 0.677375
w 254 -253 -236 0.481951
w 255 254 237 0
w 255 254 -237 1
w 255 -254 237 0
w 255 -254 -237 0
w 256 255 238 0.233435
w 256 255 -238 0.49389
w 256 -255 238 0.638121
w 256 -255 -238 0.843216
w 257 256 239 1
w 257 256 -239 0
w 257 -256 239 0
w 257 -256 -239 1
w 258 257 240 0
w 258 257 -240 0
w 258 -257 240 0
w 258 -257 -240 1
w 259 258 241 0
w 259 258 -241 1
w 259 -258 241 0
w 259 -258 -241 1
w 260 259 242 0
w 260 259 -242 1
w 260 -259 242 0
w 260 -259 -242 0
w 261 260 243 0.495999
w 261 260 -243 0.391347
w 261 -260 243 0.875953
w 261 -260 -243 0.489104
w 262 261 244 0.637119
w 262 261 -244 0.722539
w 262 -261 244 0.267737
w 262 -261 -244 0.27524
w 263 262 245 0.516606
w 263 262 -245 0.67661
w 263 -262 245 0.904903
w 263 -262 -245 0.730003
w 264 263 246 1
w 264 263 -246 0
w 264 -263 246 1
w 264 -263 -246 1
w 265 264 247 0.842066
w 265 264 -247 0.78109
w 265 -264 247 0.982427
w 265 -264 -247 0.934975
w 266 265 248 0.109547
w 266 265 -248 0.90253
w 266 -265 248 0.144441
w 266 -265 -248 0.140668
w 267 266 249 0.843432
w 267 266 -249 0.636667
w 267 -266 249 0.938806
w 267 -266 -249 0.719384
w 268 267 250 0
w 268 267 -250 1
w 268 -267 250 0
w 268 -267 -250 0
w 269 268 251 0.414064
w 269 268 -251 0.496997
w 269 -268 251 0.308353
w 269 -268 -251 0.318968
w 270 269 252 0
w 270 269 -252 1
w 270 -269 252 0
w 270 -269 -252 1
w 271 253 1
w 271 -253 0
w 272 271 254 0
w 272 271 -254 1
w 272 -271 254 1
w 272 -271 -254 0
w 273 272 255 0
w 273 272 -255 1
w 273 -272 255 0
w 273 -272 -255 0
w 274 273 256 1
w 274 273 -256 0
w 274 -273 256 0
w 274 -273 -256 1
w 275 274 257 1
w 275 274 -257 1
w 275 -274 257 1
w 275 -274 -257 0
w 276 275 258 0
w 276 275 -258 1
w 276 -275 258 1
w 276 -275 -258 1
w 277 276 259 1
w 277 276 -259 0
w 277 -276 259 0
w 277 -276 -259 1
w 278 277 260 0.73955
w 278 277 -260 0.606132
w 278 -277 260 0.0869192
w 278 -277 -260 0.0115959
w 279 278 261 0.417459
w 279 278 -261 0.42431
w 279 -278 261 0.265806
w 279 -278 -261 0.59143
w 280 279 262 0
w 280 279 -262 0
w 280 -279 262 1
w 280 -279 -262 0
w 281 280 263 0.672303
w 281 280 -263 0.298623
w 281 -280 263 0.616247
w 281 -280 -263 0.109828
w 282 281 264 0
w 282 281 -264 0
w 282 -281 264 0
w 282 -281 -264 1
w 283 282 265 0
w 283 282 -265 0
w 283 -282 265 1
w 283 -282 -265 0
w 284 283 266 1
w 284 283 -266 0
w 284 -283 266 1
w 284 -283 -266 0
w 285 284 267 0.6185
w 285 284 -267 0.0781559
w 285 -284 267 0.139935
w 285 -284 -267 0.884306
w 286 285 268 0.613625
w 286 285 -268 0.692485
w 286 -285 268 0.154372
w 286 -285 -268 0.262467
w 287 286 269 0.889017
w 287 286 -269 0.934769
w 287 -286 269 0.0543129
w 287 -286 -269 0.505263
w 288 287 270 0
w 288 287 -270 1
w 288 -287 270 1
w 288 -287 -270 0
w 289 271 0.941754
w 289 -271 0.463228
w 290 289 272 0.614712
w 290 289 -272 0.427707
w 290 -289 272 0.222787
w 290 -289 -272 0.188489
w 291 290 273 0
w 291 290 -273 1
w 291 -290 273 0
w 291 -290 -273 0
w 292 291 274 0.987297
w 292 291 -274 0.681855
w 292 -291 274 0.596929
w 292 -291 -274 0.600923
w 293 292 275 0
w 293 292 -275 1
w 293 -292 275 0
w 293 -292 -275 0
w 294 293 276 0.184343
w 294 293 -276 0.145581
w 294 -293 276 0.842757
w 294 -293 -276 0.269692
w 295 294 277 0
w 295 294 -277 1
w 295 -294 277 0
w 295 -294 -277 1
w 296 295 278 0.30479
w 296 295 -278 0.310141
w 296 -295 278 0.236427
w 296 -295 -278 0.527578
w 297 296 279 1
w 297 296 -279 0
w 297 -296 279 0
w 297 -296 -279 0
w 298 297 280 0
w 298 297 -280 1
w 298 -297 280 0
w 298 -297 -280 0
w 299 298 281 0.623389
w 299 298 -281 0.667136
w 299 -298 281 0.690399
w 299 -298 -281 0.263706
w 300 299 282 0
w 300 299 -282 1
w 300 -299 282 1
w 300 -299 -282 1
w 301 300 283 0.0617272
w 301 300 -283 0.489926
w 301 -300 283 0.298464
w 301 -300 -283 0.757157
w 302 301 284 1
w 302 301 -284 0
w 302 -301 284 0
w 302 -301 -284 1
w 303 302 285 0.903236
w 303 302 -285 0.837459
w 303 -302 285 0.913746
w 303 -302 -285 0.118762
w 304 303 286 0
w 304 303 -286 1
w 304 -303 286 0
w 304 -303 -286 0
w 305 304 287 0
w 305 304 -287 0
w 305 -304 287 1
w 305 -304 -287 0
w 306 305 288 1
w 306 305 -288 1
w 306 -305 288 0
w 306 -305 -288 1
w 307 289 0
w 307 -289 1
w 308 307 290 0
w 308 307 -290 1
w 308 -307 290 1
w 308 -307 -290 1
w 309 308 291 1
w 309 308 -291 0
w 309 -308 291 1
w 309 -308 -291 1
w 310 309 292 0
w 310 309 -292 1
w 310 -309 292 0
w 310 -309 -292 0
w 311 310 293 0
w 311 310 -293 1
w 311 -310 293 0
w 311 -310 -293 1
w 312 311 294 0.382636
w 312 311 -294 0.829479
w 312 -311 294 0.81404
w 312 -311 -294 0.640399
w 313 312 295 1
w 313 312 -295 1
w 313 -312 295 1
w 313 -312 -295 0
w 314 313 296 0.5678
w 314 313 -296 0.917291
w 314 -313 296 0.218454
w 314 -313 -296 0.15398
w 315 314 297 0
w 315 314 -297 1
w 315 -314 297 1
w 315 -314 -297 1
w 316 315 298 1
w 316 315 -298 1
w 316 -315 298 0
w 316 -315 -298 1
w 317 316 299 0.791053
w 317 316 -299 0.922193
w 317 -316 299 0.497976
w 317 -316 -299 0.8421
w 318 317 300 0.880612
w 318 317 -300 0.671579
w 318 -317 300 0.602185
w 318 -317 -300 0.521011
w 319 318 301 1
w 319 318 -301 1
w 319 -318 301 0
w 319 -318 -301 1
w 320 319 302 1
w 320 319 -302 1
w 320 -319 302 0
w 320 -319 -302 0
w 321 320 303 1
w 321 320 -303 1
w 321 -320 303 1
w 321 -320 -303 0
w 322 321 304 0.174205
w 322 321 -304 0.648431
w 322 -321 304 0.498933
w 322 -321 -304 0.0820134
w 323 322 305 0
w 323 322 -305 1
w 323 -322 305 1
w 323 -322 -305 0
w 324 323 306 1
w 324 323 -306 0
w 324 -323 306 1
w 324 -323 -306 1